




































































68 47 
38 9 
16 27 
41 
59 45 
76 49 
14 30 
48 69 
33 34 
72 36 
17 2 
13 62 
28 23 
51 5 
19 32 
58 43 
54 57 
70 42 
60 20 
26 22 
25 71 
12 7 
75 50 
63 8 
29 
73 35 
10 
4 74 
61 21 
37 0 
53 64 
31 66 
52 3 
18 1 
15 
55 

67 44 
65 56 
46 
24 
39 6 

11 
40 

